(declare-fun var0 () String)
(assert (RegexIn var0 (RegexConcat (RegexStar (RegexPlus (Str2Reg "%"))) (RegexConcat (RegexPlus (RegexStar (Str2Reg "$"))) (RegexConcat (RegexUnion (RegexUnion (Str2Reg "!") (Str2Reg "\"\"\"")) (RegexPlus (Str2Reg "#"))) (RegexConcat (RegexUnion (RegexPlus (Str2Reg "X")) (RegexUnion (Str2Reg "YY") (Str2Reg "Z"))) (RegexConcat (RegexPlus (RegexUnion (Str2Reg "V") (Str2Reg "WWW"))) (RegexConcat (RegexUnion (RegexPlus (Str2Reg "SS")) (RegexUnion (Str2Reg "TT") (Str2Reg "UUU"))) (RegexConcat (RegexStar (RegexUnion (Str2Reg "Q") (Str2Reg "RR"))) (RegexConcat (RegexPlus (RegexPlus (Str2Reg "PPP"))) (RegexConcat (RegexPlus (RegexStar (Str2Reg "OOO"))) (RegexConcat (RegexPlus (RegexUnion (Str2Reg "MM") (Str2Reg "NN"))) (RegexConcat (RegexStar (RegexPlus (Str2Reg "L"))) (RegexConcat (RegexUnion (RegexStar (Str2Reg "JJJ")) (RegexPlus (Str2Reg "KK"))) (RegexConcat (RegexPlus (RegexStar (Str2Reg "I"))) (RegexConcat (RegexStar (RegexPlus (Str2Reg "HHH"))) (RegexConcat (RegexPlus (RegexPlus (Str2Reg "GG"))) (RegexConcat (RegexPlus (RegexPlus (Str2Reg "FFF"))) (RegexConcat (RegexStar (RegexPlus (Str2Reg "EE"))) (RegexConcat (RegexUnion (RegexStar (Str2Reg "B")) (RegexUnion (Str2Reg "C") (Str2Reg "DD"))) (RegexConcat (RegexUnion (RegexUnion (Str2Reg "yy") (Str2Reg "zz")) (RegexStar (Str2Reg "AA"))) (RegexConcat (RegexStar (RegexPlus (Str2Reg "xx"))) (RegexConcat (RegexPlus (RegexStar (Str2Reg "ww"))) (RegexConcat (RegexPlus (RegexPlus (Str2Reg "vvv"))) (RegexConcat (RegexPlus (RegexUnion (Str2Reg "t") (Str2Reg "uuu"))) (RegexConcat (RegexUnion (RegexStar (Str2Reg "qq")) (RegexUnion (Str2Reg "rr") (Str2Reg "ss"))) (RegexConcat (RegexUnion (RegexPlus (Str2Reg "o")) (RegexStar (Str2Reg "pp"))) (RegexConcat (RegexUnion (RegexUnion (Str2Reg "lll") (Str2Reg "mm")) (RegexStar (Str2Reg "nn"))) (RegexConcat (RegexPlus (RegexUnion (Str2Reg "jj") (Str2Reg "kk"))) (RegexConcat (RegexUnion (RegexUnion (Str2Reg "fff") (Str2Reg "gg")) (RegexUnion (Str2Reg "h") (Str2Reg "ii"))) (RegexConcat (RegexStar (RegexStar (Str2Reg "eee"))) (RegexConcat (RegexPlus (RegexPlus (Str2Reg "ddd"))) (RegexConcat (RegexUnion (RegexPlus (Str2Reg "bb")) (RegexPlus (Str2Reg "ccc"))) (RegexConcat (RegexPlus (RegexPlus (Str2Reg "a"))) (RegexConcat (RegexUnion (RegexPlus (Str2Reg "88")) (RegexStar (Str2Reg "999"))) (RegexConcat (RegexUnion (RegexUnion (Str2Reg "4") (Str2Reg "55")) (RegexUnion (Str2Reg "666") (Str2Reg "7"))) (RegexConcat (RegexPlus (RegexStar (Str2Reg "333"))) (RegexUnion (RegexUnion (Str2Reg "000") (Str2Reg "1")) (RegexStar (Str2Reg "22"))))))))))))))))))))))))))))))))))))))))
(check-sat)